p cnf 966 2481
51 -699 -700 0
-51 699 0
-51 700 0
52 -51 -701 0
-52 51 0
-52 701 0
53 -5 -4 0
-53 5 0
-53 4 0
54 -53 -701 0
-54 53 0
-54 701 0
55 -702 -703 0
-55 702 0
-55 703 0
56 -7 -704 0
-56 7 0
-56 704 0
57 -56 -8 0
-57 56 0
-57 8 0
58 -705 -55 0
-58 705 0
-58 55 0
59 -706 -1 0
-59 706 0
-59 1 0
60 -59 -10 0
-60 59 0
-60 10 0
61 -707 -58 0
-61 707 0
-61 58 0
62 -12 -11 0
-62 12 0
-62 11 0
63 -62 -13 0
-63 62 0
-63 13 0
64 -708 -61 0
-64 708 0
-64 61 0
65 -14 -709 0
-65 14 0
-65 709 0
66 -65 -15 0
-66 65 0
-66 15 0
67 -710 -64 0
-67 710 0
-67 64 0
68 -711 -712 0
-68 711 0
-68 712 0
69 -68 -17 0
-69 68 0
-69 17 0
70 -713 -67 0
-70 713 0
-70 67 0
71 -714 -700 0
-71 714 0
-71 700 0
72 -71 -701 0
-72 71 0
-72 701 0
73 -715 -70 0
-73 715 0
-73 70 0
74 -716 -717 0
-74 716 0
-74 717 0
75 -74 -21 0
-75 74 0
-75 21 0
76 -718 -73 0
-76 718 0
-76 73 0
77 -719 -712 0
-77 719 0
-77 712 0
78 -77 -706 0
-78 77 0
-78 706 0
79 -720 -76 0
-79 720 0
-79 76 0
80 -721 -4 0
-80 721 0
-80 4 0
81 -80 -24 0
-81 80 0
-81 24 0
82 -722 -79 0
-82 722 0
-82 79 0
83 -13 -704 0
-83 13 0
-83 704 0
84 -83 -9 0
-84 83 0
-84 9 0
85 -723 -82 0
-85 723 0
-85 82 0
86 -23 -22 0
-86 23 0
-86 22 0
87 -86 -9 0
-87 86 0
-87 9 0
88 -724 -85 0
-88 724 0
-88 85 0
89 -725 -1 0
-89 725 0
-89 1 0
90 -89 -26 0
-90 89 0
-90 26 0
91 -726 -88 0
-91 726 0
-91 88 0
92 -28 -27 0
-92 28 0
-92 27 0
93 -92 -29 0
-93 92 0
-93 29 0
94 -727 -91 0
-94 727 0
-94 91 0
95 -728 -729 0
-95 728 0
-95 729 0
96 -95 -21 0
-96 95 0
-96 21 0
97 -730 -94 0
-97 730 0
-97 94 0
98 -731 -12 0
-98 731 0
-98 12 0
99 -98 -725 0
-99 98 0
-99 725 0
100 -732 -97 0
-100 732 0
-100 97 0
101 -12 -706 0
-101 12 0
-101 706 0
102 -101 -733 0
-102 101 0
-102 733 0
103 -734 -100 0
-103 734 0
-103 100 0
104 -33 -8 0
-104 33 0
-104 8 0
105 -104 -3 0
-105 104 0
-105 3 0
106 -735 -103 0
-106 735 0
-106 103 0
107 -34 -11 0
-107 34 0
-107 11 0
108 -107 -736 0
-108 107 0
-108 736 0
109 -737 -106 0
-109 737 0
-109 106 0
110 -35 -738 0
-110 35 0
-110 738 0
111 -110 -29 0
-111 110 0
-111 29 0
112 -739 -109 0
-112 739 0
-112 109 0
113 -32 -714 0
-113 32 0
-113 714 0
114 -113 -740 0
-114 113 0
-114 740 0
115 -741 -112 0
-115 741 0
-115 112 0
116 -37 -36 0
-116 37 0
-116 36 0
117 -116 -742 0
-117 116 0
-117 742 0
118 -743 -115 0
-118 743 0
-118 115 0
119 -37 -17 0
-119 37 0
-119 17 0
120 -119 -38 0
-120 119 0
-120 38 0
121 -744 -118 0
-121 744 0
-121 118 0
122 -19 -10 0
-122 19 0
-122 10 0
123 -122 -20 0
-123 122 0
-123 20 0
124 -745 -121 0
-124 745 0
-124 121 0
125 -746 -10 0
-125 746 0
-125 10 0
126 -125 -40 0
-126 125 0
-126 40 0
127 -747 -124 0
-127 747 0
-127 124 0
128 -41 -4 0
-128 41 0
-128 4 0
129 -128 -17 0
-129 128 0
-129 17 0
130 -748 -127 0
-130 748 0
-130 127 0
131 -12 -4 0
-131 12 0
-131 4 0
132 -131 -5 0
-132 131 0
-132 5 0
133 -749 -130 0
-133 749 0
-133 130 0
134 -24 -750 0
-134 24 0
-134 750 0
135 -134 -42 0
-135 134 0
-135 42 0
136 -751 -133 0
-136 751 0
-136 133 0
137 -752 -714 0
-137 752 0
-137 714 0
138 -137 -753 0
-138 137 0
-138 753 0
139 -754 -136 0
-139 754 0
-139 136 0
140 -35 -716 0
-140 35 0
-140 716 0
141 -140 -736 0
-141 140 0
-141 736 0
142 -755 -139 0
-142 755 0
-142 139 0
143 -725 -711 0
-143 725 0
-143 711 0
144 -143 -756 0
-144 143 0
-144 756 0
145 -757 -142 0
-145 757 0
-145 142 0
146 -758 -759 0
-146 758 0
-146 759 0
147 -146 -44 0
-147 146 0
-147 44 0
148 -760 -145 0
-148 760 0
-148 145 0
149 -740 -18 0
-149 740 0
-149 18 0
150 -149 -742 0
-150 149 0
-150 742 0
151 -761 -148 0
-151 761 0
-151 148 0
152 -725 -11 0
-152 725 0
-152 11 0
153 -152 -19 0
-153 152 0
-153 19 0
154 -762 -151 0
-154 762 0
-154 151 0
155 -731 -8 0
-155 731 0
-155 8 0
156 -155 -700 0
-156 155 0
-156 700 0
157 -763 -154 0
-157 763 0
-157 154 0
158 -22 -1 0
-158 22 0
-158 1 0
159 -158 -764 0
-159 158 0
-159 764 0
160 -765 -157 0
-160 765 0
-160 157 0
161 -39 -759 0
-161 39 0
-161 759 0
162 -161 -17 0
-162 161 0
-162 17 0
163 -766 -160 0
-163 766 0
-163 160 0
164 -767 -37 0
-164 767 0
-164 37 0
165 -164 -764 0
-165 164 0
-165 764 0
166 -768 -163 0
-166 768 0
-166 163 0
167 -756 -769 0
-167 756 0
-167 769 0
168 -167 -770 0
-168 167 0
-168 770 0
169 -771 -166 0
-169 771 0
-169 166 0
170 -30 -1 0
-170 30 0
-170 1 0
171 -170 -42 0
-171 170 0
-171 42 0
172 -772 -169 0
-172 772 0
-172 169 0
173 -770 -37 0
-173 770 0
-173 37 0
174 -173 -10 0
-174 173 0
-174 10 0
175 -773 -172 0
-175 773 0
-175 172 0
176 -46 -774 0
-176 46 0
-176 774 0
177 -176 -738 0
-177 176 0
-177 738 0
178 -775 -175 0
-178 775 0
-178 175 0
179 -776 -777 0
-179 776 0
-179 777 0
180 -179 -778 0
-180 179 0
-180 778 0
181 -779 -178 0
-181 779 0
-181 178 0
182 -45 -28 0
-182 45 0
-182 28 0
183 -182 -740 0
-183 182 0
-183 740 0
184 -780 -181 0
-184 780 0
-184 181 0
185 -11 -4 0
-185 11 0
-185 4 0
186 -185 -721 0
-186 185 0
-186 721 0
187 -781 -184 0
-187 781 0
-187 184 0
188 -39 -721 0
-188 39 0
-188 721 0
189 -188 -21 0
-189 188 0
-189 21 0
190 -782 -187 0
-190 782 0
-190 187 0
191 -16 -7 0
-191 16 0
-191 7 0
192 -191 -750 0
-192 191 0
-192 750 0
193 -783 -190 0
-193 783 0
-193 190 0
194 -32 -711 0
-194 32 0
-194 711 0
195 -194 -1 0
-195 194 0
-195 1 0
196 -784 -193 0
-196 784 0
-196 193 0
197 -48 -785 0
-197 48 0
-197 785 0
198 -197 -728 0
-198 197 0
-198 728 0
199 -786 -196 0
-199 786 0
-199 196 0
200 -23 -785 0
-200 23 0
-200 785 0
201 -200 -758 0
-201 200 0
-201 758 0
202 -787 -199 0
-202 787 0
-202 199 0
203 -48 -11 0
-203 48 0
-203 11 0
204 -203 -776 0
-204 203 0
-204 776 0
205 -788 -202 0
-205 788 0
-205 202 0
206 -789 -12 0
-206 789 0
-206 12 0
207 -206 -15 0
-207 206 0
-207 15 0
208 -790 -205 0
-208 790 0
-208 205 0
209 -18 -11 0
-209 18 0
-209 11 0
210 -209 -719 0
-210 209 0
-210 719 0
211 -791 -208 0
-211 791 0
-211 208 0
212 -6 -759 0
-212 6 0
-212 759 0
213 -212 -736 0
-213 212 0
-213 736 0
214 -792 -211 0
-214 792 0
-214 211 0
215 -146 -24 0
-215 146 0
-215 24 0
216 -793 -214 0
-216 793 0
-216 214 0
217 -758 -753 0
-217 758 0
-217 753 0
218 -217 -719 0
-218 217 0
-218 719 0
219 -794 -216 0
-219 794 0
-219 216 0
220 -795 -729 0
-220 795 0
-220 729 0
221 -220 -21 0
-221 220 0
-221 21 0
222 -796 -219 0
-222 796 0
-222 219 0
223 -42 -746 0
-223 42 0
-223 746 0
224 -223 -21 0
-224 223 0
-224 21 0
225 -797 -222 0
-225 797 0
-225 222 0
226 -10 -9 0
-226 10 0
-226 9 0
227 -226 -2 0
-227 226 0
-227 2 0
228 -798 -225 0
-228 798 0
-228 225 0
229 -746 -5 0
-229 746 0
-229 5 0
230 -229 -42 0
-230 229 0
-230 42 0
231 -799 -228 0
-231 799 0
-231 228 0
232 -41 -34 0
-232 41 0
-232 34 0
233 -232 -26 0
-233 232 0
-233 26 0
234 -800 -231 0
-234 800 0
-234 231 0
235 -801 -736 0
-235 801 0
-235 736 0
236 -235 -701 0
-236 235 0
-236 701 0
237 -802 -234 0
-237 802 0
-237 234 0
238 -34 -803 0
-238 34 0
-238 803 0
239 -238 -24 0
-239 238 0
-239 24 0
240 -804 -237 0
-240 804 0
-240 237 0
241 -752 -4 0
-241 752 0
-241 4 0
242 -241 -38 0
-242 241 0
-242 38 0
243 -805 -240 0
-243 805 0
-243 240 0
244 -806 -41 0
-244 806 0
-244 41 0
245 -244 -701 0
-245 244 0
-245 701 0
246 -807 -243 0
-246 807 0
-246 243 0
247 -34 -785 0
-247 34 0
-247 785 0
248 -247 -15 0
-248 247 0
-248 15 0
249 -808 -246 0
-249 808 0
-249 246 0
250 -28 -714 0
-250 28 0
-250 714 0
251 -250 -10 0
-251 250 0
-251 10 0
252 -809 -249 0
-252 809 0
-252 249 0
253 -721 -704 0
-253 721 0
-253 704 0
254 -253 -10 0
-254 253 0
-254 10 0
255 -810 -252 0
-255 810 0
-255 252 0
256 -758 -19 0
-256 758 0
-256 19 0
257 -256 -811 0
-257 256 0
-257 811 0
258 -812 -255 0
-258 812 0
-258 255 0
259 -10 -5 0
-259 10 0
-259 5 0
260 -259 -813 0
-260 259 0
-260 813 0
261 -814 -258 0
-261 814 0
-261 258 0
262 -815 -746 0
-262 815 0
-262 746 0
263 -262 -811 0
-263 262 0
-263 811 0
264 -816 -261 0
-264 816 0
-264 261 0
265 -40 -16 0
-265 40 0
-265 16 0
266 -265 -50 0
-266 265 0
-266 50 0
267 -817 -264 0
-267 817 0
-267 264 0
268 -44 -34 0
-268 44 0
-268 34 0
269 -268 -811 0
-269 268 0
-269 811 0
270 -818 -267 0
-270 818 0
-270 267 0
271 -758 -33 0
-271 758 0
-271 33 0
272 -271 -733 0
-272 271 0
-272 733 0
273 -819 -270 0
-273 819 0
-273 270 0
274 -31 -2 0
-274 31 0
-274 2 0
275 -274 -3 0
-275 274 0
-275 3 0
276 -820 -273 0
-276 820 0
-276 273 0
277 -746 -729 0
-277 746 0
-277 729 0
278 -277 -738 0
-278 277 0
-278 738 0
279 -821 -276 0
-279 821 0
-279 276 0
280 -756 -43 0
-280 756 0
-280 43 0
281 -280 -776 0
-281 280 0
-281 776 0
282 -822 -279 0
-282 822 0
-282 279 0
283 -777 -7 0
-283 777 0
-283 7 0
284 -283 -17 0
-284 283 0
-284 17 0
285 -823 -282 0
-285 823 0
-285 282 0
286 -33 -717 0
-286 33 0
-286 717 0
287 -286 -767 0
-287 286 0
-287 767 0
288 -824 -285 0
-288 824 0
-288 285 0
289 -825 -716 0
-289 825 0
-289 716 0
290 -289 -811 0
-290 289 0
-290 811 0
291 -826 -288 0
-291 826 0
-291 288 0
292 -777 -5 0
-292 777 0
-292 5 0
293 -292 -750 0
-293 292 0
-293 750 0
294 -827 -291 0
-294 827 0
-294 291 0
295 -777 -712 0
-295 777 0
-295 712 0
296 -295 -17 0
-296 295 0
-296 17 0
297 -828 -294 0
-297 828 0
-297 294 0
298 -714 -777 0
-298 714 0
-298 777 0
299 -298 -3 0
-299 298 0
-299 3 0
300 -829 -297 0
-300 829 0
-300 297 0
301 -725 -803 0
-301 725 0
-301 803 0
302 -301 -15 0
-302 301 0
-302 15 0
303 -830 -300 0
-303 830 0
-303 300 0
304 -714 -13 0
-304 714 0
-304 13 0
305 -304 -699 0
-305 304 0
-305 699 0
306 -831 -303 0
-306 831 0
-306 303 0
307 -36 -7 0
-307 36 0
-307 7 0
308 -307 -767 0
-308 307 0
-308 767 0
309 -832 -306 0
-309 832 0
-309 306 0
310 -815 -803 0
-310 815 0
-310 803 0
311 -310 -811 0
-311 310 0
-311 811 0
312 -833 -309 0
-312 833 0
-312 309 0
313 -44 -750 0
-313 44 0
-313 750 0
314 -313 -834 0
-314 313 0
-314 834 0
315 -835 -312 0
-315 835 0
-315 312 0
316 -806 -6 0
-316 806 0
-316 6 0
317 -316 -33 0
-317 316 0
-317 33 0
318 -836 -315 0
-318 836 0
-318 315 0
319 -34 -33 0
-319 34 0
-319 33 0
320 -319 -778 0
-320 319 0
-320 778 0
321 -837 -318 0
-321 837 0
-321 318 0
322 -34 -838 0
-322 34 0
-322 838 0
323 -322 -41 0
-323 322 0
-323 41 0
324 -839 -321 0
-324 839 0
-324 321 0
325 -767 -35 0
-325 767 0
-325 35 0
326 -325 -778 0
-326 325 0
-326 778 0
327 -840 -324 0
-327 840 0
-327 324 0
328 -49 -39 0
-328 49 0
-328 39 0
329 -328 -40 0
-329 328 0
-329 40 0
330 -841 -327 0
-330 841 0
-330 327 0
331 -736 -759 0
-331 736 0
-331 759 0
332 -331 -26 0
-332 331 0
-332 26 0
333 -842 -330 0
-333 842 0
-333 330 0
334 -770 -1 0
-334 770 0
-334 1 0
335 -334 -46 0
-335 334 0
-335 46 0
336 -843 -333 0
-336 843 0
-336 333 0
337 -776 -19 0
-337 776 0
-337 19 0
338 -337 -50 0
-338 337 0
-338 50 0
339 -844 -336 0
-339 844 0
-339 336 0
340 -45 -706 0
-340 45 0
-340 706 0
341 -340 -29 0
-341 340 0
-341 29 0
342 -845 -339 0
-342 845 0
-342 339 0
343 -43 -714 0
-343 43 0
-343 714 0
344 -343 -27 0
-344 343 0
-344 27 0
345 -846 -342 0
-345 846 0
-345 342 0
346 -721 -742 0
-346 721 0
-346 742 0
347 -346 -847 0
-347 346 0
-347 847 0
348 -848 -345 0
-348 848 0
-348 345 0
349 -733 -6 0
-349 733 0
-349 6 0
350 -349 -811 0
-350 349 0
-350 811 0
351 -849 -348 0
-351 849 0
-351 348 0
352 -37 -18 0
-352 37 0
-352 18 0
353 -352 -24 0
-353 352 0
-353 24 0
354 -850 -351 0
-354 850 0
-354 351 0
355 -30 -777 0
-355 30 0
-355 777 0
356 -355 -750 0
-356 355 0
-356 750 0
357 -851 -354 0
-357 851 0
-357 354 0
358 -40 -22 0
-358 40 0
-358 22 0
359 -358 -2 0
-359 358 0
-359 2 0
360 -852 -357 0
-360 852 0
-360 357 0
361 -776 -25 0
-361 776 0
-361 25 0
362 -361 -811 0
-362 361 0
-362 811 0
363 -853 -360 0
-363 853 0
-363 360 0
364 -37 -721 0
-364 37 0
-364 721 0
365 -364 -834 0
-365 364 0
-365 834 0
366 -854 -363 0
-366 854 0
-366 363 0
367 -774 -23 0
-367 774 0
-367 23 0
368 -367 -795 0
-368 367 0
-368 795 0
369 -855 -366 0
-369 855 0
-369 366 0
370 -45 -37 0
-370 45 0
-370 37 0
371 -370 -733 0
-371 370 0
-371 733 0
372 -856 -369 0
-372 856 0
-372 369 0
373 -756 -18 0
-373 756 0
-373 18 0
374 -373 -26 0
-374 373 0
-374 26 0
375 -857 -372 0
-375 857 0
-375 372 0
376 -244 -26 0
-376 244 0
-376 26 0
377 -858 -375 0
-377 858 0
-377 375 0
378 -19 -750 0
-378 19 0
-378 750 0
379 -378 -801 0
-379 378 0
-379 801 0
380 -859 -377 0
-380 859 0
-380 377 0
381 -767 -746 0
-381 767 0
-381 746 0
382 -381 -801 0
-382 381 0
-382 801 0
383 -860 -380 0
-383 860 0
-383 380 0
384 -706 -712 0
-384 706 0
-384 712 0
385 -384 -36 0
-385 384 0
-385 36 0
386 -861 -383 0
-386 861 0
-386 383 0
387 -811 -774 0
-387 811 0
-387 774 0
388 -387 -26 0
-388 387 0
-388 26 0
389 -862 -386 0
-389 862 0
-389 386 0
390 -789 -742 0
-390 789 0
-390 742 0
391 -390 -2 0
-391 390 0
-391 2 0
392 -863 -389 0
-392 863 0
-392 389 0
393 -47 -746 0
-393 47 0
-393 746 0
394 -393 -801 0
-394 393 0
-394 801 0
395 -864 -392 0
-395 864 0
-395 392 0
396 -731 -728 0
-396 731 0
-396 728 0
397 -396 -750 0
-397 396 0
-397 750 0
398 -865 -395 0
-398 865 0
-398 395 0
399 -31 -714 0
-399 31 0
-399 714 0
400 -399 -22 0
-400 399 0
-400 22 0
401 -866 -398 0
-401 866 0
-401 398 0
402 -767 -36 0
-402 767 0
-402 36 0
403 -402 -10 0
-403 402 0
-403 10 0
404 -867 -401 0
-404 867 0
-404 401 0
405 -758 -712 0
-405 758 0
-405 712 0
406 -405 -3 0
-406 405 0
-406 3 0
407 -868 -404 0
-407 868 0
-407 404 0
408 -25 -23 0
-408 25 0
-408 23 0
409 -408 -847 0
-409 408 0
-409 847 0
410 -869 -407 0
-410 869 0
-410 407 0
411 -39 -803 0
-411 39 0
-411 803 0
412 -411 -742 0
-412 411 0
-412 742 0
413 -870 -410 0
-413 870 0
-413 410 0
414 -729 -700 0
-414 729 0
-414 700 0
415 -414 -42 0
-415 414 0
-415 42 0
416 -871 -413 0
-416 871 0
-416 413 0
417 -37 -729 0
-417 37 0
-417 729 0
418 -417 -49 0
-418 417 0
-418 49 0
419 -872 -416 0
-419 872 0
-419 416 0
420 -41 -31 0
-420 41 0
-420 31 0
421 -420 -15 0
-421 420 0
-421 15 0
422 -873 -419 0
-422 873 0
-422 419 0
423 -48 -8 0
-423 48 0
-423 8 0
424 -423 -26 0
-424 423 0
-424 26 0
425 -874 -422 0
-425 874 0
-425 422 0
426 -31 -7 0
-426 31 0
-426 7 0
427 -426 -806 0
-427 426 0
-427 806 0
428 -875 -425 0
-428 875 0
-428 425 0
429 -49 -25 0
-429 49 0
-429 25 0
430 -429 -736 0
-430 429 0
-430 736 0
431 -876 -428 0
-431 876 0
-431 428 0
432 -18 -7 0
-432 18 0
-432 7 0
433 -432 -813 0
-433 432 0
-433 813 0
434 -877 -431 0
-434 877 0
-434 431 0
435 -716 -6 0
-435 716 0
-435 6 0
436 -435 -699 0
-436 435 0
-436 699 0
437 -878 -434 0
-437 878 0
-437 434 0
438 -767 -40 0
-438 767 0
-438 40 0
439 -438 -35 0
-439 438 0
-439 35 0
440 -879 -437 0
-440 879 0
-440 437 0
441 -24 -2 0
-441 24 0
-441 2 0
442 -441 -50 0
-442 441 0
-442 50 0
443 -880 -440 0
-443 880 0
-443 440 0
444 -48 -20 0
-444 48 0
-444 20 0
445 -444 -21 0
-445 444 0
-445 21 0
446 -881 -443 0
-446 881 0
-446 443 0
447 -46 -32 0
-447 46 0
-447 32 0
448 -447 -35 0
-448 447 0
-448 35 0
449 -882 -446 0
-449 882 0
-449 446 0
450 -770 -41 0
-450 770 0
-450 41 0
451 -450 -46 0
-451 450 0
-451 46 0
452 -883 -449 0
-452 883 0
-452 449 0
453 -706 -4 0
-453 706 0
-453 4 0
454 -453 -770 0
-454 453 0
-454 770 0
455 -884 -452 0
-455 884 0
-455 452 0
456 -33 -706 0
-456 33 0
-456 706 0
457 -456 -767 0
-457 456 0
-457 767 0
458 -885 -455 0
-458 885 0
-458 455 0
459 -48 -32 0
-459 48 0
-459 32 0
460 -459 -11 0
-460 459 0
-460 11 0
461 -886 -458 0
-461 886 0
-461 458 0
462 -776 -733 0
-462 776 0
-462 733 0
463 -462 -15 0
-463 462 0
-463 15 0
464 -887 -461 0
-464 887 0
-464 461 0
465 -815 -776 0
-465 815 0
-465 776 0
466 -465 -2 0
-466 465 0
-466 2 0
467 -888 -464 0
-467 888 0
-467 464 0
468 -39 -25 0
-468 39 0
-468 25 0
469 -468 -706 0
-469 468 0
-469 706 0
470 -889 -467 0
-470 889 0
-470 467 0
471 -752 -746 0
-471 752 0
-471 746 0
472 -471 -42 0
-472 471 0
-472 42 0
473 -890 -470 0
-473 890 0
-473 470 0
474 -774 -22 0
-474 774 0
-474 22 0
475 -474 -3 0
-475 474 0
-475 3 0
476 -891 -473 0
-476 891 0
-476 473 0
477 -36 -700 0
-477 36 0
-477 700 0
478 -477 -736 0
-478 477 0
-478 736 0
479 -892 -476 0
-479 892 0
-479 476 0
480 -23 -777 0
-480 23 0
-480 777 0
481 -480 -9 0
-481 480 0
-481 9 0
482 -893 -479 0
-482 893 0
-482 479 0
483 -769 -4 0
-483 769 0
-483 4 0
484 -483 -27 0
-484 483 0
-484 27 0
485 -894 -482 0
-485 894 0
-485 482 0
486 -42 -731 0
-486 42 0
-486 731 0
487 -486 -14 0
-487 486 0
-487 14 0
488 -895 -485 0
-488 895 0
-488 485 0
489 -759 -700 0
-489 759 0
-489 700 0
490 -489 -811 0
-490 489 0
-490 811 0
491 -896 -488 0
-491 896 0
-491 488 0
492 -32 -19 0
-492 32 0
-492 19 0
493 -492 -701 0
-493 492 0
-493 701 0
494 -897 -491 0
-494 897 0
-494 491 0
495 -811 -4 0
-495 811 0
-495 4 0
496 -495 -738 0
-496 495 0
-496 738 0
497 -898 -494 0
-497 898 0
-497 494 0
498 -47 -717 0
-498 47 0
-498 717 0
499 -498 -20 0
-499 498 0
-499 20 0
500 -899 -497 0
-500 899 0
-500 497 0
501 -41 -712 0
-501 41 0
-501 712 0
502 -501 -767 0
-502 501 0
-502 767 0
503 -900 -500 0
-503 900 0
-503 500 0
504 -48 -776 0
-504 48 0
-504 776 0
505 -504 -50 0
-505 504 0
-505 50 0
506 -901 -503 0
-506 901 0
-506 503 0
507 -769 -12 0
-507 769 0
-507 12 0
508 -507 -699 0
-508 507 0
-508 699 0
509 -902 -506 0
-509 902 0
-509 506 0
510 -44 -759 0
-510 44 0
-510 759 0
511 -510 -29 0
-511 510 0
-511 29 0
512 -903 -509 0
-512 903 0
-512 509 0
513 -777 -12 0
-513 777 0
-513 12 0
514 -513 -719 0
-514 513 0
-514 719 0
515 -904 -512 0
-515 904 0
-515 512 0
516 -725 -704 0
-516 725 0
-516 704 0
517 -516 -811 0
-517 516 0
-517 811 0
518 -905 -515 0
-518 905 0
-518 515 0
519 -43 -31 0
-519 43 0
-519 31 0
520 -519 -834 0
-520 519 0
-520 834 0
521 -906 -518 0
-521 906 0
-521 518 0
522 -37 -25 0
-522 37 0
-522 25 0
523 -522 -42 0
-523 522 0
-523 42 0
524 -907 -521 0
-524 907 0
-524 521 0
525 -143 -15 0
-525 143 0
-525 15 0
526 -908 -524 0
-526 908 0
-526 524 0
527 -42 -33 0
-527 42 0
-527 33 0
528 -527 -778 0
-528 527 0
-528 778 0
529 -909 -526 0
-529 909 0
-529 526 0
530 -41 -777 0
-530 41 0
-530 777 0
531 -530 -19 0
-531 530 0
-531 19 0
532 -910 -529 0
-532 910 0
-532 529 0
533 -756 -41 0
-533 756 0
-533 41 0
534 -533 -2 0
-534 533 0
-534 2 0
535 -911 -532 0
-535 911 0
-535 532 0
536 -49 -24 0
-536 49 0
-536 24 0
537 -536 -706 0
-537 536 0
-537 706 0
538 -912 -535 0
-538 912 0
-538 535 0
539 -41 -30 0
-539 41 0
-539 30 0
540 -539 -1 0
-540 539 0
-540 1 0
541 -913 -538 0
-541 913 0
-541 538 0
542 -49 -7 0
-542 49 0
-542 7 0
543 -542 -699 0
-543 542 0
-543 699 0
544 -914 -541 0
-544 914 0
-544 541 0
545 -789 -5 0
-545 789 0
-545 5 0
546 -545 -767 0
-546 545 0
-546 767 0
547 -915 -544 0
-547 915 0
-547 544 0
548 -43 -769 0
-548 43 0
-548 769 0
549 -548 -35 0
-549 548 0
-549 35 0
550 -916 -547 0
-550 916 0
-550 547 0
551 -28 -700 0
-551 28 0
-551 700 0
552 -551 -10 0
-552 551 0
-552 10 0
553 -917 -550 0
-553 917 0
-553 550 0
554 -770 -6 0
-554 770 0
-554 6 0
555 -554 -14 0
-555 554 0
-555 14 0
556 -918 -553 0
-556 918 0
-556 553 0
557 -752 -785 0
-557 752 0
-557 785 0
558 -557 -21 0
-558 557 0
-558 21 0
559 -919 -556 0
-559 919 0
-559 556 0
560 -721 -11 0
-560 721 0
-560 11 0
561 -560 -746 0
-561 560 0
-561 746 0
562 -920 -559 0
-562 920 0
-562 559 0
563 -758 -11 0
-563 758 0
-563 11 0
564 -563 -753 0
-564 563 0
-564 753 0
565 -921 -562 0
-565 921 0
-565 562 0
566 -49 -795 0
-566 49 0
-566 795 0
567 -566 -847 0
-567 566 0
-567 847 0
568 -922 -565 0
-568 922 0
-568 565 0
569 -47 -752 0
-569 47 0
-569 752 0
570 -569 -716 0
-570 569 0
-570 716 0
571 -923 -568 0
-571 923 0
-571 568 0
572 -49 -785 0
-572 49 0
-572 785 0
573 -572 -813 0
-573 572 0
-573 813 0
574 -924 -571 0
-574 924 0
-574 571 0
575 -752 -12 0
-575 752 0
-575 12 0
576 -575 -1 0
-576 575 0
-576 1 0
577 -925 -574 0
-577 925 0
-577 574 0
578 -32 -16 0
-578 32 0
-578 16 0
579 -578 -20 0
-579 578 0
-579 20 0
580 -926 -577 0
-580 926 0
-580 577 0
581 -27 -17 0
-581 27 0
-581 17 0
582 -581 -50 0
-582 581 0
-582 50 0
583 -927 -580 0
-583 927 0
-583 580 0
584 -789 -738 0
-584 789 0
-584 738 0
585 -584 -29 0
-585 584 0
-585 29 0
586 -928 -583 0
-586 928 0
-586 583 0
587 -548 -758 0
-587 548 0
-587 758 0
588 -929 -586 0
-588 929 0
-588 586 0
589 -815 -5 0
-589 815 0
-589 5 0
590 -589 -9 0
-590 589 0
-590 9 0
591 -930 -588 0
-591 930 0
-591 588 0
592 -752 -31 0
-592 752 0
-592 31 0
593 -592 -12 0
-593 592 0
-593 12 0
594 -931 -591 0
-594 931 0
-594 591 0
595 -28 -9 0
-595 28 0
-595 9 0
596 -595 -770 0
-596 595 0
-596 770 0
597 -932 -594 0
-597 932 0
-597 594 0
598 -725 -5 0
-598 725 0
-598 5 0
599 -598 -15 0
-599 598 0
-599 15 0
600 -933 -597 0
-600 933 0
-600 597 0
601 -37 -8 0
-601 37 0
-601 8 0
602 -601 -813 0
-602 601 0
-602 813 0
603 -934 -600 0
-603 934 0
-603 600 0
604 -756 -7 0
-604 756 0
-604 7 0
605 -604 -29 0
-605 604 0
-605 29 0
606 -935 -603 0
-606 935 0
-606 603 0
607 -774 -7 0
-607 774 0
-607 7 0
608 -607 -47 0
-608 607 0
-608 47 0
609 -936 -606 0
-609 936 0
-609 606 0
610 -770 -847 0
-610 770 0
-610 847 0
611 -610 -2 0
-611 610 0
-611 2 0
612 -937 -609 0
-612 937 0
-612 609 0
613 -806 -714 0
-613 806 0
-613 714 0
614 -613 -753 0
-614 613 0
-614 753 0
615 -938 -612 0
-615 938 0
-615 612 0
616 -23 -14 0
-616 23 0
-616 14 0
617 -616 -701 0
-617 616 0
-617 701 0
618 -939 -615 0
-618 939 0
-618 615 0
619 -815 -36 0
-619 815 0
-619 36 0
620 -619 -40 0
-620 619 0
-620 40 0
621 -940 -618 0
-621 940 0
-621 618 0
622 -728 -9 0
-622 728 0
-622 9 0
623 -622 -19 0
-623 622 0
-623 19 0
624 -941 -621 0
-624 941 0
-624 621 0
625 -764 -738 0
-625 764 0
-625 738 0
626 -625 -699 0
-626 625 0
-626 699 0
627 -942 -624 0
-627 942 0
-627 624 0
628 -41 -25 0
-628 41 0
-628 25 0
629 -628 -24 0
-629 628 0
-629 24 0
630 -943 -627 0
-630 943 0
-630 627 0
631 -16 -12 0
-631 16 0
-631 12 0
632 -631 -47 0
-632 631 0
-632 47 0
633 -944 -630 0
-633 944 0
-633 630 0
634 -825 -750 0
-634 825 0
-634 750 0
635 -634 -717 0
-635 634 0
-635 717 0
636 -945 -633 0
-636 945 0
-636 633 0
637 -746 -725 0
-637 746 0
-637 725 0
638 -637 -20 0
-638 637 0
-638 20 0
639 -946 -636 0
-639 946 0
-639 636 0
640 -33 -785 0
-640 33 0
-640 785 0
641 -640 -39 0
-641 640 0
-641 39 0
642 -947 -639 0
-642 947 0
-642 639 0
643 -37 -750 0
-643 37 0
-643 750 0
644 -643 -700 0
-644 643 0
-644 700 0
645 -948 -642 0
-645 948 0
-645 642 0
646 -717 -709 0
-646 717 0
-646 709 0
647 -646 -738 0
-647 646 0
-647 738 0
648 -949 -645 0
-648 949 0
-648 645 0
649 -49 -12 0
-649 49 0
-649 12 0
650 -649 -22 0
-650 649 0
-650 22 0
651 -950 -648 0
-651 950 0
-651 648 0
652 -48 -759 0
-652 48 0
-652 759 0
653 -652 -33 0
-653 652 0
-653 33 0
654 -951 -651 0
-654 951 0
-654 651 0
655 -729 -777 0
-655 729 0
-655 777 0
656 -655 -16 0
-656 655 0
-656 16 0
657 -952 -654 0
-657 952 0
-657 654 0
658 -769 -704 0
-658 769 0
-658 704 0
659 -658 -811 0
-659 658 0
-659 811 0
660 -953 -657 0
-660 953 0
-660 657 0
661 -801 -834 0
-661 801 0
-661 834 0
662 -661 -778 0
-662 661 0
-662 778 0
663 -954 -660 0
-663 954 0
-663 660 0
664 -48 -27 0
-664 48 0
-664 27 0
665 -664 -750 0
-665 664 0
-665 750 0
666 -955 -663 0
-666 955 0
-666 663 0
667 -725 -12 0
-667 725 0
-667 12 0
668 -667 -699 0
-668 667 0
-668 699 0
669 -956 -666 0
-669 956 0
-669 666 0
670 -776 -11 0
-670 776 0
-670 11 0
671 -670 -770 0
-671 670 0
-671 770 0
672 -957 -669 0
-672 957 0
-672 669 0
673 -752 -774 0
-673 752 0
-673 774 0
674 -673 -44 0
-674 673 0
-674 44 0
675 -958 -672 0
-675 958 0
-675 672 0
676 -49 -709 0
-676 49 0
-676 709 0
677 -676 -41 0
-677 676 0
-677 41 0
678 -959 -675 0
-678 959 0
-678 675 0
679 -12 -704 0
-679 12 0
-679 704 0
680 -679 -811 0
-680 679 0
-680 811 0
681 -960 -678 0
-681 960 0
-681 678 0
682 -717 -750 0
-682 717 0
-682 750 0
683 -682 -699 0
-683 682 0
-683 699 0
684 -961 -681 0
-684 961 0
-684 681 0
685 -776 -7 0
-685 776 0
-685 7 0
686 -685 -38 0
-686 685 0
-686 38 0
687 -962 -684 0
-687 962 0
-687 684 0
688 -753 -721 0
-688 753 0
-688 721 0
689 -688 -39 0
-689 688 0
-689 39 0
690 -963 -687 0
-690 963 0
-690 687 0
691 -756 -36 0
-691 756 0
-691 36 0
692 -691 -701 0
-692 691 0
-692 701 0
693 -964 -690 0
-693 964 0
-693 690 0
694 -48 -729 0
-694 48 0
-694 729 0
695 -694 -35 0
-695 694 0
-695 35 0
696 -965 -693 0
-696 965 0
-696 693 0
697 -396 -43 0
-697 396 0
-697 43 0
698 -966 -696 0
-698 966 0
-698 696 0
-699 -2 0
699 2 0
-700 -1 0
700 1 0
-701 -3 0
701 3 0
-702 -54 0
702 54 0
-703 -52 0
703 52 0
-704 -6 0
704 6 0
-705 -57 0
705 57 0
-706 -9 0
706 9 0
-707 -60 0
707 60 0
-708 -63 0
708 63 0
-709 -5 0
709 5 0
-710 -66 0
710 66 0
-711 -16 0
711 16 0
-712 -7 0
712 7 0
-713 -69 0
713 69 0
-714 -18 0
714 18 0
-715 -72 0
715 72 0
-716 -20 0
716 20 0
-717 -19 0
717 19 0
-718 -75 0
718 75 0
-719 -22 0
719 22 0
-720 -78 0
720 78 0
-721 -23 0
721 23 0
-722 -81 0
722 81 0
-723 -84 0
723 84 0
-724 -87 0
724 87 0
-725 -25 0
725 25 0
-726 -90 0
726 90 0
-727 -93 0
727 93 0
-728 -31 0
728 31 0
-729 -30 0
729 30 0
-730 -96 0
730 96 0
-731 -32 0
731 32 0
-732 -99 0
732 99 0
-733 -14 0
733 14 0
-734 -102 0
734 102 0
-735 -105 0
735 105 0
-736 -29 0
736 29 0
-737 -108 0
737 108 0
-738 -15 0
738 15 0
-739 -111 0
739 111 0
-740 -36 0
740 36 0
-741 -114 0
741 114 0
-742 -10 0
742 10 0
-743 -117 0
743 117 0
-744 -120 0
744 120 0
-745 -123 0
745 123 0
-746 -39 0
746 39 0
-747 -126 0
747 126 0
-748 -129 0
748 129 0
-749 -132 0
749 132 0
-750 -8 0
750 8 0
-751 -135 0
751 135 0
-752 -43 0
752 43 0
-753 -28 0
753 28 0
-754 -138 0
754 138 0
-755 -141 0
755 141 0
-756 -44 0
756 44 0
-757 -144 0
757 144 0
-758 -45 0
758 45 0
-759 -4 0
759 4 0
-760 -147 0
760 147 0
-761 -150 0
761 150 0
-762 -153 0
762 153 0
-763 -156 0
763 156 0
-764 -38 0
764 38 0
-765 -159 0
765 159 0
-766 -162 0
766 162 0
-767 -46 0
767 46 0
-768 -165 0
768 165 0
-769 -34 0
769 34 0
-770 -42 0
770 42 0
-771 -168 0
771 168 0
-772 -171 0
772 171 0
-773 -174 0
773 174 0
-774 -27 0
774 27 0
-775 -177 0
775 177 0
-776 -47 0
776 47 0
-777 -13 0
777 13 0
-778 -26 0
778 26 0
-779 -180 0
779 180 0
-780 -183 0
780 183 0
-781 -186 0
781 186 0
-782 -189 0
782 189 0
-783 -192 0
783 192 0
-784 -195 0
784 195 0
-785 -11 0
785 11 0
-786 -198 0
786 198 0
-787 -201 0
787 201 0
-788 -204 0
788 204 0
-789 -24 0
789 24 0
-790 -207 0
790 207 0
-791 -210 0
791 210 0
-792 -213 0
792 213 0
-793 -215 0
793 215 0
-794 -218 0
794 218 0
-795 -41 0
795 41 0
-796 -221 0
796 221 0
-797 -224 0
797 224 0
-798 -227 0
798 227 0
-799 -230 0
799 230 0
-800 -233 0
800 233 0
-801 -35 0
801 35 0
-802 -236 0
802 236 0
-803 -12 0
803 12 0
-804 -239 0
804 239 0
-805 -242 0
805 242 0
-806 -49 0
806 49 0
-807 -245 0
807 245 0
-808 -248 0
808 248 0
-809 -251 0
809 251 0
-810 -254 0
810 254 0
-811 -40 0
811 40 0
-812 -257 0
812 257 0
-813 -50 0
813 50 0
-814 -260 0
814 260 0
-815 -48 0
815 48 0
-816 -263 0
816 263 0
-817 -266 0
817 266 0
-818 -269 0
818 269 0
-819 -272 0
819 272 0
-820 -275 0
820 275 0
-821 -278 0
821 278 0
-822 -281 0
822 281 0
-823 -284 0
823 284 0
-824 -287 0
824 287 0
-825 -37 0
825 37 0
-826 -290 0
826 290 0
-827 -293 0
827 293 0
-828 -296 0
828 296 0
-829 -299 0
829 299 0
-830 -302 0
830 302 0
-831 -305 0
831 305 0
-832 -308 0
832 308 0
-833 -311 0
833 311 0
-834 -21 0
834 21 0
-835 -314 0
835 314 0
-836 -317 0
836 317 0
-837 -320 0
837 320 0
-838 -33 0
838 33 0
-839 -323 0
839 323 0
-840 -326 0
840 326 0
-841 -329 0
841 329 0
-842 -332 0
842 332 0
-843 -335 0
843 335 0
-844 -338 0
844 338 0
-845 -341 0
845 341 0
-846 -344 0
846 344 0
-847 -17 0
847 17 0
-848 -347 0
848 347 0
-849 -350 0
849 350 0
-850 -353 0
850 353 0
-851 -356 0
851 356 0
-852 -359 0
852 359 0
-853 -362 0
853 362 0
-854 -365 0
854 365 0
-855 -368 0
855 368 0
-856 -371 0
856 371 0
-857 -374 0
857 374 0
-858 -376 0
858 376 0
-859 -379 0
859 379 0
-860 -382 0
860 382 0
-861 -385 0
861 385 0
-862 -388 0
862 388 0
-863 -391 0
863 391 0
-864 -394 0
864 394 0
-865 -397 0
865 397 0
-866 -400 0
866 400 0
-867 -403 0
867 403 0
-868 -406 0
868 406 0
-869 -409 0
869 409 0
-870 -412 0
870 412 0
-871 -415 0
871 415 0
-872 -418 0
872 418 0
-873 -421 0
873 421 0
-874 -424 0
874 424 0
-875 -427 0
875 427 0
-876 -430 0
876 430 0
-877 -433 0
877 433 0
-878 -436 0
878 436 0
-879 -439 0
879 439 0
-880 -442 0
880 442 0
-881 -445 0
881 445 0
-882 -448 0
882 448 0
-883 -451 0
883 451 0
-884 -454 0
884 454 0
-885 -457 0
885 457 0
-886 -460 0
886 460 0
-887 -463 0
887 463 0
-888 -466 0
888 466 0
-889 -469 0
889 469 0
-890 -472 0
890 472 0
-891 -475 0
891 475 0
-892 -478 0
892 478 0
-893 -481 0
893 481 0
-894 -484 0
894 484 0
-895 -487 0
895 487 0
-896 -490 0
896 490 0
-897 -493 0
897 493 0
-898 -496 0
898 496 0
-899 -499 0
899 499 0
-900 -502 0
900 502 0
-901 -505 0
901 505 0
-902 -508 0
902 508 0
-903 -511 0
903 511 0
-904 -514 0
904 514 0
-905 -517 0
905 517 0
-906 -520 0
906 520 0
-907 -523 0
907 523 0
-908 -525 0
908 525 0
-909 -528 0
909 528 0
-910 -531 0
910 531 0
-911 -534 0
911 534 0
-912 -537 0
912 537 0
-913 -540 0
913 540 0
-914 -543 0
914 543 0
-915 -546 0
915 546 0
-916 -549 0
916 549 0
-917 -552 0
917 552 0
-918 -555 0
918 555 0
-919 -558 0
919 558 0
-920 -561 0
920 561 0
-921 -564 0
921 564 0
-922 -567 0
922 567 0
-923 -570 0
923 570 0
-924 -573 0
924 573 0
-925 -576 0
925 576 0
-926 -579 0
926 579 0
-927 -582 0
927 582 0
-928 -585 0
928 585 0
-929 -587 0
929 587 0
-930 -590 0
930 590 0
-931 -593 0
931 593 0
-932 -596 0
932 596 0
-933 -599 0
933 599 0
-934 -602 0
934 602 0
-935 -605 0
935 605 0
-936 -608 0
936 608 0
-937 -611 0
937 611 0
-938 -614 0
938 614 0
-939 -617 0
939 617 0
-940 -620 0
940 620 0
-941 -623 0
941 623 0
-942 -626 0
942 626 0
-943 -629 0
943 629 0
-944 -632 0
944 632 0
-945 -635 0
945 635 0
-946 -638 0
946 638 0
-947 -641 0
947 641 0
-948 -644 0
948 644 0
-949 -647 0
949 647 0
-950 -650 0
950 650 0
-951 -653 0
951 653 0
-952 -656 0
952 656 0
-953 -659 0
953 659 0
-954 -662 0
954 662 0
-955 -665 0
955 665 0
-956 -668 0
956 668 0
-957 -671 0
957 671 0
-958 -674 0
958 674 0
-959 -677 0
959 677 0
-960 -680 0
960 680 0
-961 -683 0
961 683 0
-962 -686 0
962 686 0
-963 -689 0
963 689 0
-964 -692 0
964 692 0
-965 -695 0
965 695 0
-966 -697 0
966 697 0
698 0
